12 48 6 10
11 11 7 13 1 6 1 16 8 11 16 4 20 16 19 18 12 6 4 1 13 5 12 17 14 6 15 16 5 10 5 9 12 12 12 8 11 8 8 5 9 7 10 14 16 11 20 11 
3.68 3.38 0.68 13.68 15.76 2.45 2.41 11.04 12.92 15.74 13.69 11.66 5.48 5.88 6.61 7.94 13.86 8.76 6.52 5.17 13.36 9.93 9.3 3.73 12.29 8.7 4.24 13.65 8.83 10.9 7.31 1.67 9.36 8.93 3.5 7.14 4.63 9.78 8 5.17 6.11 3.79 12.07 13.3 1.12 11.26 8.29 3.35 
2.59 12.16 11.94 5.87 14.58 6.37 10.61 4.06 15.21 2.23 11.12 12.93 0.15 14.68 0.87 9.66 12.81 7.94 0.64 12.31 8.84 6.04 15.06 9.74 13.39 12.77 4.34 14 1.78 2.36 7.06 1.37 3.03 9.15 6.29 5.06 12.49 7.69 9.58 0.79 15.37 15.96 7.76 5.52 1.19 12.11 14.59 11.94 
11.36 7.35 4.02 9.98 3.77 8.18 13.23 6.05 0.75 5.98 15.69 6.36 7.6 2.22 11.86 9.63 15.91 8.18 11.82 9.12 15.24 8.21 8.17 9.34 2.38 1.48 5.06 2.68 1.3 15.66 2.14 4.44 15.16 12.24 9.56 13.21 9.48 2.75 4.39 0.01 13.34 12.03 11.59 11.31 11.45 5.08 0.55 11.31 
1.49 5.39 10.87 7.09 5.73 9.85 15.61 6.01 4.26 13.66 9.5 2.41 7.71 2.38 14.79 9.21 12.69 13.78 10.07 12.88 9.91 1.04 2.66 2.54 0.91 12.54 12.45 0.64 7.92 8.53 8.36 9.61 1.23 7.86 5.79 7.36 4.13 5.42 5.81 11.72 2.74 9.28 11.55 10.01 15.67 13.47 4.68 5.52 
12.59 8.99 10.77 15.51 4.44 15.92 5.57 7.31 6.22 15.34 6.4 4.49 14.49 10.24 7.88 7.4 9.97 7.84 2.93 2.06 10.47 11.52 13.2 12.29 5.48 7.21 3.24 8.54 9.66 2.39 10.86 2.75 13.25 8.05 2.43 12.09 13.37 5.23 14.02 11.72 6.81 2.41 8.75 5.89 1.18 10.04 0.37 14.01 
10.64 13.41 3.32 10.07 7.1 0.67 10.43 12.49 8.68 12.62 14.32 2.78 15.43 4.27 10.28 0.36 12.75 13.14 6.82 6.78 4.78 14.26 12.17 5.59 6.6 7.2 12.39 6.74 14.61 3.66 12.06 7.02 6.09 10.21 10.3 15 8.28 3.94 0.29 0.93 15.16 5.81 7.41 9.41 3.62 15.81 13.44 12.45 
8 8 8 8 8 8 8 8 8 8 8 8 8 8 8 8 8 8 8 8 8 8 8 8 8 8 8 8 8 8 8 8 8 8 8 8 8 8 8 8 8 8 8 8 8 8 8 8 
15.1 14.43 11 8.22 1.63 2.03 15.88 15.07 4.97 11.87 8.61 12.58 10.94 7.49 2.18 1.8 2.31 10.33 13.07 15.76 15.54 11.38 12.54 8.86 13.91 9.44 2.74 11.14 14.82 7.6 15.68 14.94 13.28 13.1 13.56 2.14 12.07 5.39 5.72 10.69 1.42 12.46 13.27 14.59 13.83 1.69 0.85 8.69 
2.74 6.98 3.65 7.55 4.3 2.72 14.39 6.6 0.45 1.68 9.97 8.72 15.99 8 15.22 3.47 3.73 2.62 0.97 3.45 5.27 12.24 5.19 3.18 8.88 1.59 11.74 6.62 3.02 4.59 11.61 2.04 7.21 0.74 14.13 10.05 12.33 7.97 13.48 15.5 15.6 15.07 7.26 9.75 5.2 1.85 7.66 10.07 
0.86 14.13 1.68 11.62 13.18 12.8 15.66 10.75 11.89 6.41 3.98 3.44 10.47 1.61 6.71 7.42 14.14 4.62 5.81 14.03 14.59 11.81 7.49 1.4 13.06 8.46 1.96 8.71 0.05 7.74 1.79 12.61 9.26 7.37 13.28 10.28 6.53 1.49 12.35 15.35 14.91 11.9 1.96 1.66 7.89 5.61 4 4.57 
10.86 10 14.88 8.37 7.5 9.21 12.19 0.67 4.28 6.86 4.95 12.7 0.53 2.58 9.09 12.07 11.63 10.53 12.25 14.2 10.17 13.94 1.14 1.27 8.01 6.42 0.86 3.56 15.06 2.38 2.7 10.59 10.29 3.5 8.26 11.05 5.88 13.39 7.06 5.31 9.35 2.63 4.15 11.61 2.48 15.3 12.68 2.82 
15.29 3.62 14.15 11.35 0.41 3.63 15.95 12.17 13.71 0.96 3.99 14.73 2.5 5.01 2.06 6.17 15.77 4.03 14.36 1.93 1.52 13.25 2.28 6.51 4.06 2.89 15.45 7.91 5.18 14.7 12.85 9.87 4.65 7.36 14.24 15.2 4.7 1.19 11.52 4.85 12.33 2.93 0.81 7.82 11.17 13.79 12.74 9.41 
1 1 1 1 1 1 1 1 1 1 1 1 1 1 1 1 1 1 1 1 1 1 1 1 1 1 1 1 1 1 1 1 1 1 1 1 1 1 1 1 1 1 1 1 1 1 1 1 
1 1 1 1 1 1 1 1 1 1 1 1 1 1 1 1 1 1 1 1 1 1 1 1 1 1 1 1 1 1 1 1 1 1 1 1 1 1 1 1 1 1 1 1 1 1 1 1 
1 1 1 1 1 1 1 1 1 1 1 1 1 1 1 1 1 1 1 1 1 1 1 1 1 1 1 1 1 1 1 1 1 1 1 1 1 1 1 1 1 1 1 1 1 1 1 1 
1 1 1 1 1 1 1 1 1 1 1 1 1 1 1 1 1 1 1 1 1 1 1 1 1 1 1 1 1 1 1 1 1 1 1 1 1 1 1 1 1 1 1 1 1 1 1 1 
1 1 1 1 1 1 1 1 1 1 1 1 1 1 1 1 1 1 1 1 1 1 1 1 1 1 1 1 1 1 1 1 1 1 1 1 1 1 1 1 1 1 1 1 1 1 1 1 
1 1 1 1 1 1 1 1 1 1 1 1 1 1 1 1 1 1 1 1 1 1 1 1 1 1 1 1 1 1 1 1 1 1 1 1 1 1 1 1 1 1 1 1 1 1 1 1 
1 1 1 1 1 1 1 1 1 1 1 1 1 1 1 1 1 1 1 1 1 1 1 1 1 1 1 1 1 1 1 1 1 1 1 1 1 1 1 1 1 1 1 1 1 1 1 1 
1 1 1 1 1 1 1 1 1 1 1 1 1 1 1 1 1 1 1 1 1 1 1 1 1 1 1 1 1 1 1 1 1 1 1 1 1 1 1 1 1 1 1 1 1 1 1 1 
1 1 1 1 1 1 1 1 1 1 1 1 1 1 1 1 1 1 1 1 1 1 1 1 1 1 1 1 1 1 1 1 1 1 1 1 1 1 1 1 1 1 1 1 1 1 1 1 
1 1 1 1 1 1 1 1 1 1 1 1 1 1 1 1 1 1 1 1 1 1 1 1 1 1 1 1 1 1 1 1 1 1 1 1 1 1 1 1 1 1 1 1 1 1 1 1 
1 1 1 1 1 1 1 1 1 1 1 1 1 1 1 1 1 1 1 1 1 1 1 1 1 1 1 1 1 1 1 1 1 1 1 1 1 1 1 1 1 1 1 1 1 1 1 1 
1 1 1 1 1 1 1 1 1 1 1 1 1 1 1 1 1 1 1 1 1 1 1 1 1 1 1 1 1 1 1 1 1 1 1 1 1 1 1 1 1 1 1 1 1 1 1 1 
0.01 0.01 0.01 0.01 0.01 0.01 0.01 0.01 0.01 0.01 0.01 0.01 0.01 0.01 0.01 0.01 0.01 0.01 0.01 0.01 0.01 0.01 0.01 0.01 0.01 0.01 0.01 0.01 0.01 0.01 0.01 0.01 0.01 0.01 0.01 0.01 0.01 0.01 0.01 0.01 0.01 0.01 0.01 0.01 0.01 0.01 0.01 0.01 
0.02 0.02 0.02 0.02 0.02 0.02 0.02 0.02 0.02 0.02 0.02 0.02 0.02 0.02 0.02 0.02 0.02 0.02 0.02 0.02 0.02 0.02 0.02 0.02 0.02 0.02 0.02 0.02 0.02 0.02 0.02 0.02 0.02 0.02 0.02 0.02 0.02 0.02 0.02 0.02 0.02 0.02 0.02 0.02 0.02 0.02 0.02 0.02 
0.03 0.03 0.03 0.03 0.03 0.03 0.03 0.03 0.03 0.03 0.03 0.03 0.03 0.03 0.03 0.03 0.03 0.03 0.03 0.03 0.03 0.03 0.03 0.03 0.03 0.03 0.03 0.03 0.03 0.03 0.03 0.03 0.03 0.03 0.03 0.03 0.03 0.03 0.03 0.03 0.03 0.03 0.03 0.03 0.03 0.03 0.03 0.03 
0.04 0.04 0.04 0.04 0.04 0.04 0.04 0.04 0.04 0.04 0.04 0.04 0.04 0.04 0.04 0.04 0.04 0.04 0.04 0.04 0.04 0.04 0.04 0.04 0.04 0.04 0.04 0.04 0.04 0.04 0.04 0.04 0.04 0.04 0.04 0.04 0.04 0.04 0.04 0.04 0.04 0.04 0.04 0.04 0.04 0.04 0.04 0.04 
0.05 0.05 0.05 0.05 0.05 0.05 0.05 0.05 0.05 0.05 0.05 0.05 0.05 0.05 0.05 0.05 0.05 0.05 0.05 0.05 0.05 0.05 0.05 0.05 0.05 0.05 0.05 0.05 0.05 0.05 0.05 0.05 0.05 0.05 0.05 0.05 0.05 0.05 0.05 0.05 0.05 0.05 0.05 0.05 0.05 0.05 0.05 0.05 
0.06 0.06 0.06 0.06 0.06 0.06 0.06 0.06 0.06 0.06 0.06 0.06 0.06 0.06 0.06 0.06 0.06 0.06 0.06 0.06 0.06 0.06 0.06 0.06 0.06 0.06 0.06 0.06 0.06 0.06 0.06 0.06 0.06 0.06 0.06 0.06 0.06 0.06 0.06 0.06 0.06 0.06 0.06 0.06 0.06 0.06 0.06 0.06 
0.07 0.07 0.07 0.07 0.07 0.07 0.07 0.07 0.07 0.07 0.07 0.07 0.07 0.07 0.07 0.07 0.07 0.07 0.07 0.07 0.07 0.07 0.07 0.07 0.07 0.07 0.07 0.07 0.07 0.07 0.07 0.07 0.07 0.07 0.07 0.07 0.07 0.07 0.07 0.07 0.07 0.07 0.07 0.07 0.07 0.07 0.07 0.07 
0.2 0.2 0.2 0.2 0.2 0.2 0.2 0.2 0.2 0.2 0.2 0.2 0.2 0.2 0.2 0.2 0.2 0.2 0.2 0.2 0.2 0.2 0.2 0.2 0.2 0.2 0.2 0.2 0.2 0.2 0.2 0.2 0.2 0.2 0.2 0.2 0.2 0.2 0.2 0.2 0.2 0.2 0.2 0.2 0.2 0.2 0.2 0.2 
0.4 0.4 0.4 0.4 0.4 0.4 0.4 0.4 0.4 0.4 0.4 0.4 0.4 0.4 0.4 0.4 0.4 0.4 0.4 0.4 0.4 0.4 0.4 0.4 0.4 0.4 0.4 0.4 0.4 0.4 0.4 0.4 0.4 0.4 0.4 0.4 0.4 0.4 0.4 0.4 0.4 0.4 0.4 0.4 0.4 0.4 0.4 0.4 
0.6 0.6 0.6 0.6 0.6 0.6 0.6 0.6 0.6 0.6 0.6 0.6 0.6 0.6 0.6 0.6 0.6 0.6 0.6 0.6 0.6 0.6 0.6 0.6 0.6 0.6 0.6 0.6 0.6 0.6 0.6 0.6 0.6 0.6 0.6 0.6 0.6 0.6 0.6 0.6 0.6 0.6 0.6 0.6 0.6 0.6 0.6 0.6 
0.8 0.8 0.8 0.8 0.8 0.8 0.8 0.8 0.8 0.8 0.8 0.8 0.8 0.8 0.8 0.8 0.8 0.8 0.8 0.8 0.8 0.8 0.8 0.8 0.8 0.8 0.8 0.8 0.8 0.8 0.8 0.8 0.8 0.8 0.8 0.8 0.8 0.8 0.8 0.8 0.8 0.8 0.8 0.8 0.8 0.8 0.8 0.8 
1 1 1 1 1 1 1 1 1 1 1 1 1 1 1 1 1 1 1 1 1 1 1 1 1 1 1 1 1 1 1 1 1 1 1 1 1 1 1 1 1 1 1 1 1 1 1 1 
